
Gurobi 11.0.3 (mac64[arm], gurobi_cl) logging started Tue Nov 12 10:14:11 2024

Set parameter Username
Set parameter LogFile to value "gurobi.log"
Using license file /Library/gurobi1103/gurobi.lic
Academic license - for non-commercial use only - expires 2025-10-20

Gurobi 11.0.3 (mac64[arm], gurobi_cl) logging started Tue Nov 12 10:16:36 2024

Set parameter Username
Set parameter LogFile to value "gurobi.log"
Using license file /Library/gurobi1103/gurobi.lic
Academic license - for non-commercial use only - expires 2025-10-20

Gurobi 11.0.3 (mac64[arm], gurobi_cl) logging started Wed Nov 13 18:25:57 2024

Set parameter Username
Set parameter LogFile to value "gurobi.log"
Using license file /Library/gurobi1103/gurobi.lic
Academic license - for non-commercial use only - expires 2025-10-20

Gurobi 11.0.3 (mac64[arm], gurobi_cl) logging started Wed Nov 13 18:26:27 2024

Set parameter Username
Set parameter LogFile to value "gurobi.log"
Using license file /Library/gurobi1103/gurobi.lic
Academic license - for non-commercial use only - expires 2025-10-20

Gurobi 11.0.3 (mac64[arm], gurobi_cl) logging started Wed Nov 13 18:29:05 2024

Set parameter Username
Set parameter LogFile to value "gurobi.log"
Using license file /Library/gurobi1103/gurobi.lic
Academic license - for non-commercial use only - expires 2025-10-20
